&GLOBAL
  PRINT_LEVEL LOW
  WALLTIME 720000
   PROJECT diels_alder
  RUN_TYPE MD
   SEED 300
&END GLOBAL

&MOTION

  &MD
   COMVEL_TOL 0.000005
   ENSEMBLE NVT
   STEPS 5000 
   TIMESTEP 0.5
   TEMPERATURE 300.0

    &THERMOSTAT
      TYPE CSVR
      &CSVR
        TIMECON 100.
      &END CSVR
    &END THERMOSTAT
  &END MD
 
  &FREE_ENERGY
    &METADYN
       USE_PLUMED .TRUE.
       PLUMED_INPUT_FILE ./plumed.dat
    &END METADYN
  &END FREE_ENERGY

&END MOTION



&FORCE_EVAL
  METHOD Quickstep
  &DFT
    &QS
      METHOD PM6
      &SE
      &END SE
    &END QS
    &SCF
      SCF_GUESS ATOMIC
      EPS_SCF 1.0E-5
      MAX_SCF 50
       &OUTER_SCF
          EPS_SCF 1.0E-7
          MAX_SCF 500
       &END
    &END SCF
  &END DFT


  &SUBSYS
    &CELL
      ABC 15.0 15.0 15.0
      PERIODIC NONE
    &END CELL


    &COORD
C        -1.7865753588        0.9044612674        0.9247943234
C        -0.8213681478        1.1717513994       -0.1103062436
C        -0.8622062457        0.2809338835       -1.1076601619
C        -1.8883330528       -0.8191423357       -1.1306617996
C        -1.8961419556       -1.5326577401        0.2598823613
C        -1.6207579882       -0.5625847991        1.4134158662
H        -1.7543614928       -1.5553267408       -1.9301298745
H        -2.8610631106       -0.2315545968       -1.4244562790
H        -2.8700841551       -1.9442658677        0.4248740316
H        -1.1354022090       -2.3530786184        0.1082679574
H        -0.5885195730       -0.6608004575        1.7279348691
H        -2.1604930014       -0.8820915908        2.3529998053
H        -1.7013042205        1.6067438811        1.7958480960
H        -2.8274800059        0.9687546881        0.5818519786
H        -0.0496597350        1.9032171112       -0.0375768253
H        -0.2821656941        0.3967016785       -2.0390168352
     &END COORD
   &END SUBSYS

&END FORCE_EVAL
